; benchmark generated from python API
(set-info :status unknown)
(declare-datatypes ((IntState 0)) (((Mk1 (val1 Int)) (Mk2 (val2 Int)))))
 (declare-fun c_main_~y~0 () Int)
(declare-fun c_main_~x~0 () Int)
(declare-fun c_main_~z~0 () Int)
(assert
 (let (($x31 (exists ((|v_main_#t~nondet1_5_st| IntState) (val!75 Int) )(let (($x112 (not (= |v_main_#t~nondet1_5_st| (Mk1 val!75)))))
 (and $x112 (= c_main_~y~0 (* 2097152 (val2 |v_main_#t~nondet1_5_st|))))))
 ))
 (let (($x178 (exists ((|v_main_#t~nondet0_5_st| IntState) (val!74 Int) )(let (($x112 (not (= |v_main_#t~nondet0_5_st| (Mk1 val!74)))))
 (and $x112 (= (* 1048576 (val2 |v_main_#t~nondet0_5_st|)) c_main_~x~0))))
 ))
 (let (($x185 (exists ((|v_main_#t~nondet2_5_st| IntState) (val!73 Int) )(let (($x112 (not (= |v_main_#t~nondet2_5_st| (Mk1 val!73)))))
 (and $x112 (= (* 4194304 (val2 |v_main_#t~nondet2_5_st|)) c_main_~z~0))))
 ))
 (let (($x52 (exists ((|v_main_#t~nondet2_5| Int) )(exists ((|v_main_#t~nondet2_6| Int) )(= (+ (* 4194304 |v_main_#t~nondet2_5|) (* 4194304 |v_main_#t~nondet2_6|)) c_main_~z~0))
 )
 ))
 (let (($x49 (exists ((|v_main_#t~nondet0_5| Int) )(exists ((|v_main_#t~nondet0_6| Int) )(= c_main_~x~0 (+ (* 1048576 |v_main_#t~nondet0_5|) (* 1048576 |v_main_#t~nondet0_6|))))
 )
 ))
 (let (($x86 (exists ((|v_main_#t~nondet1_6| Int) )(exists ((|v_main_#t~nondet1_5| Int) )(= c_main_~y~0 (+ (* 2097152 |v_main_#t~nondet1_6|) (* 2097152 |v_main_#t~nondet1_5|))))
 )
 ))
 (and (and $x86 $x49 $x52) (not (and $x185 $x178 $x31))))))))))
(check-sat)
